certificates/rado_a13_c118_N25.cnf
c Rad2 upper bound instance: x1 + 13*x2 - x3 = 118, interval [1,25]
p cnf 25 96
1 10 13 0
-1 -10 -13 0
1 2 9 0
-1 -2 -9 0
2 10 14 0
-2 -10 -14 0
2 3 9 0
-2 -3 -9 0
3 10 15 0
-3 -10 -15 0
3 4 9 0
-3 -4 -9 0
4 10 16 0
-4 -10 -16 0
4 5 9 0
-4 -5 -9 0
5 10 17 0
-5 -10 -17 0
5 6 9 0
-5 -6 -9 0
6 10 18 0
-6 -10 -18 0
6 7 9 0
-6 -7 -9 0
7 10 19 0
-7 -10 -19 0
7 8 9 0
-7 -8 -9 0
8 10 20 0
-8 -10 -20 0
8 9 0
-8 -9 0
9 10 21 0
-9 -10 -21 0
9 10 0
-9 -10 0
10 22 0
-10 -22 0
9 10 11 0
-9 -10 -11 0
10 11 23 0
-10 -11 -23 0
9 11 12 0
-9 -11 -12 0
10 12 24 0
-10 -12 -24 0
9 12 13 0
-9 -12 -13 0
10 13 25 0
-10 -13 -25 0
9 13 14 0
-9 -13 -14 0
1 8 15 0
-1 -8 -15 0
9 14 15 0
-9 -14 -15 0
2 8 16 0
-2 -8 -16 0
9 15 16 0
-9 -15 -16 0
3 8 17 0
-3 -8 -17 0
9 16 17 0
-9 -16 -17 0
4 8 18 0
-4 -8 -18 0
9 17 18 0
-9 -17 -18 0
5 8 19 0
-5 -8 -19 0
9 18 19 0
-9 -18 -19 0
6 8 20 0
-6 -8 -20 0
9 19 20 0
-9 -19 -20 0
7 8 21 0
-7 -8 -21 0
9 20 21 0
-9 -20 -21 0
8 22 0
-8 -22 0
9 21 22 0
-9 -21 -22 0
8 9 23 0
-8 -9 -23 0
9 22 23 0
-9 -22 -23 0
8 10 24 0
-8 -10 -24 0
9 23 24 0
-9 -23 -24 0
8 11 25 0
-8 -11 -25 0
9 24 25 0
-9 -24 -25 0
