certificates/rado_a13_c118_N25.drat
-24 -25 0
d -24 -9 -25 0
-10 -25 0
-25 0
10 0
-9 0
-22 0
8 0
24 0
23 0
21 0
0
